c Lingeling SAT Solver
c 
c Version ala b02aa1a04343558c4252b5f4a723be021964f652
c 
c Copyright (C) 2010-2012 Armin Biere JKU Linz Austria.
c All rights reserved.
c 
c released Sat Oct 13 14:05:26 CEST 2012
c compiled Sat Feb 16 02:48:12 EST 2013
c 
c gcc (Debian 4.4.5-8) 4.4.5
c -Wall -O3 -DNLGLOG -DNDEBUG -DNCHKSOL -DNLGLPICOSAT 
c Linux greencar2 2.6.32-5-amd64 x86_64
c 
c reading input file p38.cnf
c no embedded options
c found 'p cnf 232558 721360' header
c read 232558 variables, 721360 clauses, 1501062 literals in 0.0 seconds
c
c feature vars 232558
c feature lits.total 1501062
c feature lits.pos 799393
c feature lits.neg 701669
c feature clauses.total 721360
c feature clauses.unit 86578
c feature clauses.bin 508062
c feature clauses.trn 125320
c feature clauses.lrg 1400
c feature cog.val.min 1
c feature cog.val.avg 103639
c feature cog.val.max 223849
c feature cog.var.min 1
c feature cog.var.avg 116280
c feature cog.var.max 232557
c
c
c --abstime=0
c --acts=2
c --actavgmax=120
c --actstdmin=20
c --actstdmax=80
c --agile=23
c --bias=2
c --block=1
c --blkrtc=0
c --blkclslim=2000
c --blkocclim=2000
c --blkmaxeff=2147483647
c --blkmineff=10000000
c --blkreleff=20
c --card=0
c --cce=3
c --ccemaxeff=100000000
c --ccemineff=5000000
c --ccereleff=3
c --check=0
c --cgrclsr=1
c --cgrmaxority=20
c --cgrmaxeff=8000000
c --cgrmineff=200000
c --cgreleff=1
c --cgrexteq=1
c --cgrextand=1
c --cgrextunits=1
c --cgrextite=1
c --cgrextxor=1
c --cliff=1
c --cliffreleff=8
c --cliffmineff=10000000
c --cliffmaxeff=100000000
c --compact=0
c --decompose=1
c --defragint=10000000
c --defragfree=50
c --elim=1
c --elmrtc=0
c --elmblk=1
c --elmclslim=1000
c --elmocclim=1000
c --elmaxeff=100000000
c --elmineff=5000000
c --elmreleff=10
c --sleeponabort=0
c --exitonabort=0
c --flipping=1
c --flipint=2
c --flipdur=50
c --fliptop=1
c --force=0
c --gauss=1
c --gaussextrall=1
c --gaussmaxor=20
c --gaussexptrn=1
c --gaussmaxeff=50000000
c --gaussmineff=2000000
c --gaussreleff=2
c --gluescale=2
c --gluekeep=0
c --inprocessing=1
c --cintinc=10000
c --irrlim=20
c --lift=1
c --lftmaxeff=20000000
c --lftmineff=500000
c --lftreleff=6
c --lhbr=1
c --lkhd=1
c --clim=-1
c --mocint=1000
c --move=2
c --log=-1
c --otfs=1
c --phase=0
c --phaseneginit=0
c --plain=0
c --probe=1
c --prbasicmaxeff=100000000
c --prbasicmineff=1000000
c --prbasicreleff=10
c --prbasic=1
c --prbasicroundlim=9
c --queuemergelim=10000
c --queuefactor=833
c --queueinc=20
c --rmincpen=4
c --seed=0
c --smallirr=90
c --smallve=1
c --smallvevars=12
c --randec=1
c --randecint=1000
c --redfixed=0
c --redlbound=0
c --redlexpfac=10
c --redldoutfac=0
c --redloutinc=10000
c --redlinit=1000
c --redlinc=1000
c --redinoutinc=100
c --redlmininc=10
c --redlmaxinc=200
c --redlminrel=10
c --redlmaxrel=300
c --redlminabs=500
c --redlmaxabs=1000000
c --reduce=1
c --restart=2
c --restartint=5
c --rstinoutinc=110
c --simplify=1
c --simpdelay=100
c --simpen=4
c --sizepen=1000000
c --sizemaxpen=3
c --sortlits=0
c --syncint=111111
c --termint=122222
c --ternres=1
c --ternresrtc=0
c --trnrmineff=4000000
c --trnrmaxeff=40000000
c --trnreleff=10
c --transred=1
c --trdmineff=100000
c --trdmaxeff=2000000
c --trdreleff=10
c --unhide=1
c --unhdextstamp=1
c --unhdhbr=0
c --unhdmaxeff=20000000
c --unhdmineff=1000000
c --unhdreleff=4
c --unhdlnpr=3
c --unhdroundlim=5
c --verbose=1
c --witness=1
c [limits] no conflict limit
c [limits] simplification delayed by 100 to 100 conflicts
c 
c  seconds         irredundant          redundant clauses agility   height
c          variables clauses conflicts large binary ternary    glue         MB
c 
c *    0.0  128720   540316         0       0      0     0  65  0.0   0.0   42
c [cut-width] 179788, max 278795, min4 120708 at 75%, min10 33947 at 90%
c [decision-order] bias 1, old 1
c [queue-schedule-all-variables]
c s    0.0  128720   540316         0       0      0     0  65  0.0   0.0   42
c [simplification-1] limit hit at 100 conflicts
c [simplification-1] simplification penalty of 4
c [ternres-1] limit 4000000 with penalty 0 = 0 + 0
c [ternres-1] all 128720 free variables schedulable
c [ternres-1] 0 ternary resolvents (0 bin, 0 trn)
c [ternres-1] 33082 variables remain 26% (95638 retained)
c [gauss-1] limit 2000000 penalty 0 = 0 + 0
c [gauss-1] extracted 165312 xors of average arity 2.0
c [gauss-1] connected 330628 occurrences of 105678 variables (average 3.1)
c [gauss-1] limit 2000000 penalty 0 = 0 + 0
c d    1.4   59400   269860       100     100      0     0  72  6.8 368.7   21
c [gauss-1] exported 0 unary, 1 binary and 0 ternary equations
c G    1.4   59400   269860       100     100      0     0  72  6.8 368.7   21
c [basicprobe-1] limit 1000000 penalty 0 = 0 + 0
c [basicprobe-1-0] 4149 probes remain 7% after last round
c [basicprobe-1-0] removed 0 variables, found 2366 hbrs
c p    1.7   59400   269860       100     100   2365     0  72  6.8 368.7   26
c [cgrclsr-1] limit 200000 penalty 0 = 0 + 0
c [cgrclsr-1] all 59400 free variables schedulable
c [cgrclsr-1] fully completed congruence closure
c [lift-1] limit 500000 with penalty 0 = 0 + 0
c [lift-1] using 59400 probes 100%
c [lift-1] 59365 variables remain 100% (35 retained)
c [cliff-1] limit of 10000000 steps penalty 0 = 0 + 0
c [cliff-1] failed 0, lifted 0
c [unhide-1] limit 1000000 with penalty 0 = 0 + 0
c [unhide-1-1] 0 units, 2 failed, 22617 tauts, 0 hbrs, 67 literals
c u    2.8   59399   247243       100     100   9826     0  72  6.8 368.7   26
c [transred-1] limit 100000 with penalty 0 = 0 + 0
c t    2.8   59399   247243       100     100   9825     0  72  6.8 368.7   26
c [block-1] scheduling all variables this time
c [block-1] scheduled 59399 variables 100%
c [block-1] limit of 10000000 steps penalty 0 = 0 + 0
c [block-1] fully completed blocked clause elimination
c [block-1] transition to [ all 0 rem 0 ] state
c [block-1] eliminated 4600 blocked clauses
c k    3.1   59399   242638       100     100   9825  4600  72  6.8 368.7   21
c [cce-1] scheduling all variables this time
c [cce-1] limit of 10000000 steps penalty 0 = 0 + 0
c [cce-1] incomplete covered clause elimination 53133 not tried 89%
c [cce-1] transition to [ all 1 rem 1 ] state
c [cce-1] eliminated 148 covered clauses
c E    3.9   59395   242490       100     100  22370  4599  72  6.8 368.7   21
c [elim-1] scheduling all variables this time
c [elim-1] scheduled 59395 variables 100%
c [elim-1] limit of 5000000 steps penalty 0 = 0 + 0
c [elim-1] incomplete variable elimination 44536 not tried 75%
c [elim-1] transition to [ all 1 rem 1 ] state
c [elim-1] eliminated 6306 = 11% variables out of 59395
c e    5.4   53089   238685       100      53   8546   595  72  6.8 368.7   21
c [phase-1] phase bias: 1663 positive 15%, 9225 negative 85%
c [simplification-1] removed 75631 variables 58%
c [simplification-1] limit increments divided by 30
c [simplification-1] arithmetic increase of conflict limit interval by 333
c [simplification-1] new irredundant limit 2362253
c [simplification-1] new conflict limit 433
c [simplification-1] simplification penalty reduced to 3
c [simplification-2] limit hit at 433 conflicts
c [simplification-2] simplification penalty of 3
c [ternres-2] limit 2000000 with penalty 1 = 1 + 0
c [ternres-2] 13629 schedulable variables 26%
c [ternres-2] 9 ternary resolvents (0 bin, 9 trn)
c [ternres-2] fully completed ternary resolution
c T    5.6   53089   238685       433     371   8546   619  29 13.9 844.1   26
c [gauss-2] limit 2000000 penalty 0 = 0 + 0
c [gauss-2] extracted 889 xors of average arity 3.0
c [gauss-2] connected 2667 occurrences of 1457 variables (average 1.8)
c [gauss-2] limit 2000000 penalty 0 = 0 + 0
c [gauss-2] fully completed
c [gauss-2] exported 0 unary, 0 binary and 0 ternary equations
c G    5.9   53089   238685       433     371   8546   619  29 13.9 844.1   21
c [basicprobe-2] limit 500000 penalty 1 = 1 + 0
c [basicprobe-2-0] 4153 probes remain 8% after last round
c [basicprobe-2-0] removed 0 variables, found 254 hbrs
c p    6.1   53089   238685       433     371   8800   619  29 13.9 844.1   26
c [cgrclsr-2] limit 100000 penalty 1 = 1 + 0
c [cgrclsr-2] all 53089 free variables schedulable
c [cgrclsr-2] fully completed congruence closure
c [lift-2] limit 250000 with penalty 1 = 1 + 0
c [lift-2] using 53058 probes 100%
c [lift-2] 53044 variables remain 100% (45 retained)
c [cliff-2] limit of 5000000 steps penalty 1 = 1 + 0
c [cliff-2] failed 0, lifted 0
c [unhide-2] limit 1000000 with penalty 0 = 0 + 0
c [unhide-2-2] 0 units, 0 failed, 877 tauts, 0 hbrs, 750 literals
c u    6.8   53089   238677       433     371   8239   619  29 13.9 844.1   26
c [transred-3] limit 100000 with penalty 0 = 0 + 0
c t    6.8   53089   238675       433     371   8235   619  29 13.9 844.1   26
c [block-2] scheduling all variables this time
c [block-2] scheduled 53089 variables 100%
c [block-2] limit of 10000000 steps penalty 0 = 0 + 0
c [block-2] fully completed blocked clause elimination
c [block-2] transition to [ all 0 rem 0 ] state
c [block-2] eliminated 0 blocked clauses
c [cce-2] 49945 variables 94% will be scheduled this time
c [cce-2] limit of 10000000 steps penalty 0 = 0 + 0
c [cce-2] 49350 variables 93% remain to be tried next time
c [cce-2] transition to [ all 0 rem 1 ] state
c [cce-2] eliminated 378 covered clauses
c E    7.6   53089   238297       433     371   8711   619  29 13.9 844.1   21
c [elim-2] 44477 variables 84% will be scheduled this time
c [elim-2] scheduled 44477 variables 84%
c [elim-2] limit of 5000000 steps penalty 0 = 0 + 0
c [elim-2] 34504 variables 65% remain to be tried next time
c [elim-2] transition to [ all 0 rem 1 ] state
c [elim-2] eliminated 897 = 2% variables out of 53089
c e    9.3   52192   237874       433     368   6107   619  29 13.9 844.1   21
c [phase-2] phase bias: 0 positive 0%, 0 negative 0%
c [simplification-2] removed 897 variables 1%
c [simplification-2] no reduction of limit increments
c [simplification-2] arithmetic increase of conflict limit interval by 10000
c [simplification-2] new irredundant limit 2362253
c [simplification-2] new conflict limit 10766
c [simplification-2] simplification penalty reduced to 2
c R    9.6   52192   237874       979     870   6120   645   8  9.5 428.1   26
c -    9.8   52192   237874      1141     501   6126   666   4  9.2 353.0   26
c R   10.5   52192   237874      2271    1490   6153   768   3  7.6 283.1   26
c 1   11.7   52192   237874      4064    2988   6246   948   7  7.1 227.8   27
c 
c  seconds         irredundant          redundant clauses agility   height
c          variables clauses conflicts large binary ternary    glue         MB
c 
c blkd: 2 bces, 4600 removed, 1412448 resolutions, 3915505 steps
c blkd: 4600 blocking literals 1%, 0 pure
c cces: 2 cces, 486 eliminated, 486 ate 100%, 0 abce 0%
c cces: 13722 probed, 1 lifted, 4 failed
c clff: 2 cliffs, 0 lifted, 0 failed
c clff: 5380 decisions, 15012575 steps
c clls: 1 sat, 0 simp, 0 freeze, 0 melt
c clls: 2222422 add, 0 assume,, 0 deref, 0 failed
c clls: 0 cassume, 0 mosat
c coll: 12 gcs, 0 rescored clauses
c cgrs: 2 count, 300000 esteps, 72411 csteps
c cgrs: 0 eqs, 0 units
c cgrs: 0 matched (0 ands 0%, 0 xors 0%, 0 ites 0%)
c cgrs: 0 simplified (0 ands 0%, 0 xors 0%, 0 ites 0%)
c cgrs: 2041 extracted (1714 ands 84%, 327 xors 16%, 0 ites 0%)
c dcps: 3 decompositions, 69320 equivalent 30%
c decs: 62736 decision, 60 random 0.096%
c decs: 15515 flipped 24.731% (in 30 phases)
c elms: 2 elims, 7203 eliminated 3%
c elms: 7203 small 100%, 0 large 0%
c elms: 24960 tried small, 7203 succeeded 29%, 17757 failed 71%
c elms: 0 subsumed, 0 strengthened, 0 blocked
c elms: 316160 copies, 220995 resolutions, 649602 ipos
c elms: 0 subchks, 0 strchks
c frcs: 0 computed, 28.9 - 71.1 average min-cut range
c gaus: 2 extractions, 166201 extracted, 2.0 size, 3 max
c gaus: exported 0 units, 1 binary and 0 ternary equations
c gaus: 0 gc, 8000086 steps, 4000043 extr 50%, 2373330 elim 30%
c glue: 7.1 avg, 2.6 scaled avg
c glue: 0 maxredglue=15 (0%)
c lift: 2 phases, 294 probed (98 level1 33%, 196 level2 67%)
c lift: 0 units, 0 equivalences, 0 implications
c hbrs: 22936 hbrs = 22936 trn 100% + 0 lrg 0%, 1 sub 0%
c lrnd: 4023 clauses, 2515 uips 63%, 31.2 length, 7.1 glue
c ints: 252 luby (28310 steps), 0 inout (0 steps)
c mins: 125598 learned lits, 5% minimized
c move: moved 5086, 486 binary 10%, 4600 ternary 90%
c otfs: str 142 dyn (112 red, 30 irr) 41 drv 29%, 101 rst 71%
c otfs: sub 2 dyn (2 red, 0 irr)
c phas: 2 computed, 10999 set, 1663 pos (15%), 9336 neg (85%)
c prbs: 2 basic, 1884 probed, 0 failed, 0 lifted
c prps: 14095939 props, 131 props/dec
c prps: 58% srch, 42% simp, 0% lkhd
c psns: 530433 searches, 81896 hits, 15% hit rate
c queu: 16208 new, 6157 del, 120 maximum priority
c queu: 10025 merged, 1268 collected, 2 gcs
c queu: 4165 deprioritized, 24.3 lines on average
c reds: 1 count, 0 reset, 1 acts 100%, 0 exp 0%
c reds: 1 arithmetic 100%, 1 double 100%
c rmbd: 8 removed, 0 red 0%
c rsts: 203 restarts 81%, 48 skipped 19%
c rsts: 23 kept 11.3% average 26.0%
c simp: 2 count (0 ilim 0%, 0 plim 0%, 2 clim 100%)
c trnr: 2 count, 0 bin, 9 trn, 5100316 steps
c tops: 103843 fixed 45%, 0 iterations
c trds: 4 transitive reductions, 7 removed, 0 failed
c trds: 204 nodes, 282 edges, 201131 steps
c unhd: 2 count, 2 rounds, 2511744 steps
c unhd: 0 non-trivial sccs of average size 0.0
c unhd: 0 units, 0 bin, 0 trn, 0 lrg
c unhd: 2 failed, 2 stamp, 0 lits, 0 bin, 0 trn, 0 lrg
c unhd: 23494 tauts, 0 bin 0%, 0 trn 0%, 0 lrg 0%
c unhd: 23494 tauts, 23494 stamp 100%, 877 red 4%
c unhd: 0 hbrs, 0 trn 0%, 0 lrg 0%, 0 red 0%
c unhd: 817 strd, 0 bin 0%, 1 trn 0%, 816 lrg 100%, 816 red 100%
c vars: 52192 remaining 22% and 180366 removed 78% out of 232558
c vars: 103843 fixed 45%, 7203 eliminated 3%, 69320 equivalent 30%
c vsts: 66538225 visits, 60% srch, 40% simp, 0% lkhd
c vsts: 4.8 search visits per propagation 9783.0 per conflict
c wchs: 9444002 pushed, 4307401 enlarged, 21 defrags
c 
c scaledglue  added       reduced       forcing      resolved     conflicts
c 
c all      3550 100       500 100     16132 100      6894 100       481 100
c 
c  0          0   0         0   0         0   0         0   0         0   0 
c  1         46   1         0   0       313   2        90   1         4   1 
c  2       1366  38       148  30      6963  43      2327  34       152  32 
c  3       1234  35<      221  44<     5487  34<     2390  35<      164  34<
c  4        529  15        94  19      2443  15      1224  18        87  18 
c  5        294   8        27   5       799   5       716  10        63  13 
c  6         60   2         7   1        96   1       117   2        10   2 
c  7          9   0         2   0        15   0        13   0         0   0 
c  8         12   0         1   0        16   0        17   0         1   0 
c  9          0   0         0   0         0   0         0   0         0   0 
c 10          0   0         0   0         0   0         0   0         0   0 
c 11          0   0         0   0         0   0         0   0         0   0 
c 12          0   0         0   0         0   0         0   0         0   0 
c 13          0   0         0   0         0   0         0   0         0   0 
c 14          0   0         0   0         0   0         0   0         0   0 
c 15          0   0         0   0         0   0         0   0         0   0 
c 
c avg             3.0           3.1           2.8           3.1           3.2
c std             1.1           1.0           1.0           1.1           1.1
c 
c 62736 decisions, 4064 conflicts, 345.6 conflicts/sec
c 14095939 propagations, 1.2 megaprops/sec
c 11.8 seconds, 49.4 MB
c 
c    0.320   3% analysis
c    0.524   4% block
c    0.020   0% bump
c    0.000   0% card
c    1.332  11% cce
c    0.848   7% cliff
c    0.024   0% cutwidth
c    0.128   1% decide
c    0.000   0% force
c    0.916   8% gc
c    0.332   3% cgrclsr
c    0.548   5% decomp
c    0.240   2% defrag
c    3.168  27% elim
c    1.508  13% gauss
c    0.308   3% lift
c    0.064   1% mincls
c    0.080   1% phase
c    0.160   1% probe
c    0.004   0% reduce
c    0.224   2% restart
c    0.148   1% ternres
c    0.020   0% transred
c    0.348   3% unhide
c ==================================
c    0.032   0% preprocessing     0%
c    9.217  78% inprocessing    100%
c ==================================
c    9.249  79% simplifying
c    0.000   0% lookahead
c    2.496  21% search
c ==================================
c   11.761 100% all
c
s SATISFIABLE
